41194
42263
43161
44761
45006
46500
48359
49157
51156
51156
52566
52872
53126
53609
53849
54491
54491
54491
54491
54815
54968
55296
55705
55923
56177
56677
56677
56677
57593
57627
57796
57796
57796
57796
58643
58643
58643
60084
60084
60084
60084
60084
60237
60237
60237
60237
60239
60301
60301
60807
60807
60807
60807
60880
61006
61510
61510
62250
62250
62250
62426
63136
63136
63752
63752
63752
63752
63752
63752
63752
64250
64250
64250
64674
64674
64674
64716
64777
64826
64826
64826
65402
65402
65402
65404
65661
65918
65918
66481
66525
66525
66881
67406
67406
67406
67431
67492
67492
67492
67964
